p edge 8 40
e 1 7
e 1 6
e 1 5
e 1 3
e 1 2
e 2 7
e 2 6
e 2 5
e 2 3
e 2 1
e 3 8
e 3 7
e 3 6
e 3 5
e 3 4
e 3 2
e 3 1
e 4 8
e 4 6
e 4 5
e 4 3
e 5 7
e 5 6
e 5 4
e 5 3
e 5 2
e 5 1
e 6 7
e 6 5
e 6 4
e 6 3
e 6 2
e 6 1
e 7 6
e 7 5
e 7 3
e 7 2
e 7 1
e 8 4
e 8 3
